p cnf 55 103
c x0 -> 27
c x1 -> 20
c x2 -> 18
c x3 -> 16
c x4 -> 46
c x5 -> 47
c x6 -> 54
c x7 -> 55
2 3 -1 0
-2 -3 -1 0
2 -3 1 0
-2 3 1 0
4 2 0
-4 -2 0
5 3 0
-5 -3 0
6 -4 0
7 -4 0
-6 -7 4 0
8 -5 0
9 -5 0
-8 -9 5 0
10 6 0
-10 -6 0
11 -7 0
12 -7 0
-11 -12 7 0
13 8 0
-13 -8 0
14 -9 0
15 -9 0
-14 -15 9 0
16 -10 0
17 -10 0
-16 -17 10 0
18 11 0
-18 -11 0
19 -12 0
20 -12 0
-19 -20 12 0
16 -13 0
22 -13 0
-16 -22 13 0
18 14 0
-18 -14 0
24 -15 0
20 -15 0
-24 -20 15 0
26 17 0
-26 -17 0
27 19 0
-27 -19 0
28 22 0
-28 -22 0
27 24 0
-27 -24 0
30 -26 0
31 -26 0
-30 -31 26 0
32 -28 0
33 -28 0
-32 -33 28 0
34 30 0
-34 -30 0
35 31 0
-35 -31 0
36 32 0
-36 -32 0
37 33 0
-37 -33 0
38 -34 0
39 -34 0
-38 -39 34 0
40 -35 0
41 -35 0
-40 -41 35 0
42 -36 0
43 -36 0
-42 -43 36 0
44 -37 0
45 -37 0
-44 -45 37 0
46 38 0
-46 -38 0
47 39 0
-47 -39 0
48 40 0
-48 -40 0
49 41 0
-49 -41 0
46 42 0
-46 -42 0
47 43 0
-47 -43 0
52 44 0
-52 -44 0
53 45 0
-53 -45 0
46 -48 0
47 -48 0
-46 -47 48 0
54 -49 0
55 -49 0
-54 -55 49 0
46 -52 0
47 -52 0
-46 -47 52 0
54 -53 0
55 -53 0
-54 -55 53 0
1 0
